(set-info :smt-lib-version 2.6)
(set-logic QF_SLIA)
(set-info :source |
Generated by: Dmitry Blotsky1, Federico Mora, Murphy Berzish, Yunhui Zheng, Ifaz Kabir, Vijay Ganesh, Zhengyang Lu
Generated on: 2018-01-24
Generator: StringFuzz
Application: Evaluate string solvers
Target solver: Z3str3, CVC4, Z3str2, Norn
Publications: Blotsky, D., Mora, F., Berzish, M., Zheng, Y., Kabir, I., & Ganesh, V. (2018). Stringfuzz: A fuzzer for string solvers. In CAV 2018.
Description: transformed by StringFuzz, a modular string and regex fuzzer, from an industrial benchmark
|)
(set-info :license "https://creativecommons.org/licenses/by/4.0/")
(set-info :category "random")
(set-info :status unknown)

(declare-const x String)
(declare-const y String)
(assert (str.in_re x (re.* (str.to_re "DVO9Ub|TWNH:Gc#hr""#:\\G@-=0%li{`X@'\x0c'7\\B}n!i(}5h1\\0'n'1'\t''M7NGH'\t''n'92oV.H]Jjh%NN,+*' '-Ix$)+*ijL];.HWF6QM9!Pqi:Yj' 'gt:J|9-+B'\x0c'k<}"))))
(assert (str.in_re y (re.* (re.+ (str.to_re "AS\\JV't'Qm*6M,v~X4XCL/'\t''\t'H*m0""`IzX#_m'\x0b'E/','\x0c'hh""I!Y?Z<FAs/w/zn@42PXH")))))
(assert (= (str.len x) 6))
(assert (= (str.len y) 17))
(check-sat)

(exit)
